\ This file has been generated by DOcplex
\ ENCODING=ISO-8859-1
\Problem name: BMW

Minimize
 obj: 4 x_0_1#6 + 4 x_1_1#7 + 4 x_0_4#14 + 4 x_1_4#15
Subject To
 c1: y_(0,_1)_(1,_2) + y_(1,_1)_(1,_2) + y_(0,_4)_(1,_2) + y_(1,_4)_(1,_2) <= 4
 c2: y_(0,_1)_(1,_2) + y_(1,_1)_(1,_2) + y_(0,_4)_(1,_2) + y_(1,_4)_(1,_2) >= 1
 c3: y_(0,_1)_(1,_3) + y_(1,_1)_(1,_3) + y_(0,_4)_(1,_3) + y_(1,_4)_(1,_3) <= 4
 c4: y_(0,_1)_(1,_3) + y_(1,_1)_(1,_3) + y_(0,_4)_(1,_3) + y_(1,_4)_(1,_3) >= 1
 c5: y_(0,_1)_(1,_2) + y_(1,_1)_(1,_2) + y_(0,_4)_(1,_2) + y_(1,_4)_(1,_2) <= 4
 c6: y_(0,_1)_(1,_2) + y_(1,_1)_(1,_2) + y_(0,_4)_(1,_2) + y_(1,_4)_(1,_2) >= 1
 c7: y_(0,_1)_(1,_3) + y_(1,_1)_(1,_3) + y_(0,_4)_(1,_3) + y_(1,_4)_(1,_3) <= 4
 c8: y_(0,_1)_(1,_3) + y_(1,_1)_(1,_3) + y_(0,_4)_(1,_3) + y_(1,_4)_(1,_3) >= 1
 c9: y_(0,_1)_(1,_2) + y_(1,_1)_(1,_2) + y_(0,_4)_(1,_2) + y_(1,_4)_(1,_2) <= 4
 c10: y_(0,_1)_(1,_2) + y_(1,_1)_(1,_2) + y_(0,_4)_(1,_2) + y_(1,_4)_(1,_2) >= 
      1
 c11: y_(0,_1)_(1,_3) + y_(1,_1)_(1,_3) + y_(0,_4)_(1,_3) + y_(1,_4)_(1,_3) <= 
      4
 c12: y_(0,_1)_(1,_3) + y_(1,_1)_(1,_3) + y_(0,_4)_(1,_3) + y_(1,_4)_(1,_3) >= 
      1
 c13: y_(0,_1)_(1,_2) + y_(1,_1)_(1,_2) + y_(0,_4)_(1,_2) + y_(1,_4)_(1,_2) <= 
      4
 c14: y_(0,_1)_(1,_2) + y_(1,_1)_(1,_2) + y_(0,_4)_(1,_2) + y_(1,_4)_(1,_2) >= 
      1
 c15: y_(0,_1)_(1,_3) + y_(1,_1)_(1,_3) + y_(0,_4)_(1,_3) + y_(1,_4)_(1,_3) <= 
      4
 c16: y_(0,_1)_(1,_3) + y_(1,_1)_(1,_3) + y_(0,_4)_(1,_3) + y_(1,_4)_(1,_3) >= 
      1
 c17: - 2 x_0_1#6 + y_(0,_1)_(1,_2) + y_(0,_1)_(1,_3) = 0
 c18: - 2 x_1_1#7 + y_(1,_1)_(1,_2) + y_(1,_1)_(1,_3) = 0
 c19: - 2 x_0_1#6 + y_(0,_1)_(1,_2) + y_(0,_1)_(1,_3) = 0
 c20: - 2 x_1_1#7 + y_(1,_1)_(1,_2) + y_(1,_1)_(1,_3) = 0
 c21: - 2 x_0_1#6 + y_(0,_1)_(1,_2) + y_(0,_1)_(1,_3) = 0
 c22: - 2 x_1_1#7 + y_(1,_1)_(1,_2) + y_(1,_1)_(1,_3) = 0
 c23: - 2 x_0_1#6 + y_(0,_1)_(1,_2) + y_(0,_1)_(1,_3) = 0
 c24: - 2 x_1_1#7 + y_(1,_1)_(1,_2) + y_(1,_1)_(1,_3) = 0
 c25: - 2 x_0_4#14 + y_(0,_4)_(1,_2) + y_(0,_4)_(1,_3) = 0
 c26: - 2 x_1_4#15 + y_(1,_4)_(1,_2) + y_(1,_4)_(1,_3) = 0
 c27: - 2 x_0_4#14 + y_(0,_4)_(1,_2) + y_(0,_4)_(1,_3) = 0
 c28: - 2 x_1_4#15 + y_(1,_4)_(1,_2) + y_(1,_4)_(1,_3) = 0
 c29: - 2 x_0_4#14 + y_(0,_4)_(1,_2) + y_(0,_4)_(1,_3) = 0
 c30: - 2 x_1_4#15 + y_(1,_4)_(1,_2) + y_(1,_4)_(1,_3) = 0
 c31: - 2 x_0_4#14 + y_(0,_4)_(1,_2) + y_(0,_4)_(1,_3) = 0
 c32: - 2 x_1_4#15 + y_(1,_4)_(1,_2) + y_(1,_4)_(1,_3) = 0

Bounds
 0 <= x_0_1 <= 1
 0 <= x_1_1 <= 1
 0 <= x_0_1#2 <= 1
 0 <= x_1_1#3 <= 1
 0 <= x_0_1#4 <= 1
 0 <= x_1_1#5 <= 1
 0 <= x_0_1#6 <= 1
 0 <= x_1_1#7 <= 1
 0 <= x_0_4 <= 1
 0 <= x_1_4 <= 1
 0 <= x_0_4#10 <= 1
 0 <= x_1_4#11 <= 1
 0 <= x_0_4#12 <= 1
 0 <= x_1_4#13 <= 1
 0 <= x_0_4#14 <= 1
 0 <= x_1_4#15 <= 1
 0 <= y_(0,_1)_(1,_2) <= 1
 0 <= y_(0,_1)_(1,_3) <= 1
 0 <= y_(1,_1)_(1,_2) <= 1
 0 <= y_(1,_1)_(1,_3) <= 1
 0 <= y_(0,_4)_(1,_2) <= 1
 0 <= y_(0,_4)_(1,_3) <= 1
 0 <= y_(1,_4)_(1,_2) <= 1
 0 <= y_(1,_4)_(1,_3) <= 1

Binaries
 x_0_1 x_1_1 x_0_1#2 x_1_1#3 x_0_1#4 x_1_1#5 x_0_1#6 x_1_1#7 x_0_4 x_1_4
 x_0_4#10 x_1_4#11 x_0_4#12 x_1_4#13 x_0_4#14 x_1_4#15 y_(0,_1)_(1,_2)
 y_(0,_1)_(1,_3) y_(1,_1)_(1,_2) y_(1,_1)_(1,_3) y_(0,_4)_(1,_2) y_(0,_4)_(1,_3)
 y_(1,_4)_(1,_2) y_(1,_4)_(1,_3)
End
